100	102160

239 439
992 1192
952 1152
145 345
223 423
369 569
254 454
943 1143
642 942
519 719
26 226
517 717
415 615
570 870
657 857
702 1002
870 1170
668 868
243 443
665 865
746 946
735 935
871 1071
969 1169
100 300
873 1073
931 1131
823 1023
318 618
140 340
113 313
531 731
509 709
634 834
243 443
476 676
505 705
61 261
555 755
226 426
71 271
155 355
578 778
320 520
633 833
881 1081
670 870
982 1182
187 387
404 604
893 1093
747 947
993 1193
87 287
736 936
645 845
530 730
724 924
20 220
253 453
249 449
951 1151
439 639
92 292
178 378
795 995
521 721
286 486
479 679
44 244
15 215
454 654
176 376
565 765
197 397
979 1179
614 814
679 879
838 1038
460 660
273 473
857 1057
758 958
420 720
913 1113
236 436
41 241
744 1044
794 994
524 724
886 1086
10 210
361 561
837 1037
184 384
793 993
516 816
505 705
411 611
527 727
